
Gurobi 9.5.0 (mac64[x86]) logging started Fri 20 Jan 14:59:57 2023

Set parameter LogFile to value "/Users/nikitabelyak/Dropbox (Aalto)/TSEP/Nordic_case_study/2022 data/optimisation_results/20_Jan_2023_14_59_57.log"
Set parameter Threads to value 6
